0001 24
0002 1
0003 15
0004 15
0005 7
0006 22
0007 22
0008 16
0009 19
0010 10
0011 10
0012 18
0013 8
0014 8
0015 14
0016 10
0017 10
0018 19
0019 9
0020 20
0021 24
0022 22
0023 20
0024 20
0025 5
0026 12
0027 5
0028 24
0029 24
0030 11
0031 1
0032 23
0033 19
0034 8
0035 23
0036 7
0037 8
0038 13
0039 21
0040 14
0041 4
0042 11
0043 21
0044 5
0045 18
0046 3
0047 14
0048 14
0049 15
0050 18
0051 12
0052 13
0053 9
0054 13
0055 1
0056 1
0057 9
0058 14
0059 9
0060 2
0061 5
0062 6
0063 24
0064 13
0065 8
0066 19
0067 18
0068 18
0069 22
0070 18
0071 18
0072 23
0073 1
0074 8
0075 24
0076 22
0077 1
0078 20
0079 1
0080 1
0081 4
0082 2
0083 4
0084 2
0085 9
0086 4
0087 4
0088 2
0089 21
0090 21
0091 1
0092 24
0093 24
0094 1
0095 23
0096 10
0097 24
0098 24
0099 1
0100 3
0101 24
0102 24
0103 10
0104 24
0105 3
0106 24
0107 15
0108 11
0109 10
0110 1
0111 7
0112 17
0113 23
0114 13
0115 10
0116 12
0117 17
0118 16
0119 24
0120 17
0121 17
0122 11
0123 17
0124 23
0125 21
0126 6
0127 6
0128 6
0129 6
0130 13
0131 12
0132 12
0133 13
0134 22
0135 22
0136 5
0137 3
0138 1
0139 7
0140 11
0141 18
0142 16
0143 16
0144 7
0145 8
0146 2
0147 8
0148 3
0149 1
0150 23
0151 22
0152 12
0153 24
0154 11
0155 11
0156 1
0157 11
0158 9
0159 17
0160 17
0161 2
0162 1
0163 1
0164 1
0165 11
0166 13
0167 13
0168 14
0169 18
0170 14
0171 24
0172 15
0173 2
0174 1
0175 7
0176 15
0177 1
0178 24
0179 2
0180 23
0181 12
0182 2
0183 15
0184 14
0185 24
0186 16
0187 24
0188 16
0189 24
0190 22
